
Log started (V11.0.0) Sun Apr 13 13:00:45 2008

Tried aggregator 1 time.
Reduced MIP has 140 rows, 4001 columns, and 8040 nonzeros.
Presolve time =    0.05 sec.
Clique table members: 100.
MIP emphasis: balance optimality and feasibility.
MIP search method: dynamic search.
Parallel mode: none, using 1 thread.
Root relaxation solution time =    0.14 sec.

        Nodes                                         Cuts/
   Node  Left     Objective  IInf  Best Integer     Best Node    ItCnt     Gap

*     0+    0                         4696.0000        8.6438      579   99.82%
*     0+    0                           18.0000        8.6438      579   51.98%
      0     0        9.0000    54       18.0000      Fract: 3      599   50.00%
*     0+    0                           17.0000        9.0000      599   47.06%
      0     0        9.1258    74       17.0000       Cuts: 5      692   46.32%
*     0+    0                           16.0000        9.1258      692   42.96%
      0     0        9.8042   100       16.0000      Cuts: 38      785   38.72%
*     0+    0                           15.0000        9.8042      785   34.64%
      0     0       12.0000    26       15.0000      Cuts: 27      808   20.00%
*     0+    0                           14.0000       12.0000      808   14.29%
      0     0       13.0000    15       14.0000      Cuts: 17      827    7.14%
*     0+    0                           13.0000       13.0000      827    0.00%

Clique cuts applied:  17
Mixed integer rounding cuts applied:  19

Solution pool: 7 solutions saved.

MIP - Integer optimal solution:  Objective = 1.3000000000e+001
Solution time =    0.52 sec.  Iterations = 827  Nodes = 0


Incumbent solution
Variable Name           Solution Value
Cmax                         13.000000
X_1_17                        1.000000
X_2_11                        1.000000
X_3_24                        1.000000
X_4_36                        1.000000
X_5_29                        1.000000
X_6_32                        1.000000
X_7_32                        1.000000
X_8_5                         1.000000
X_9_14                        1.000000
X_10_14                       1.000000
X_11_25                       1.000000
X_12_18                       1.000000
X_13_36                       1.000000
X_14_8                        1.000000
X_15_23                       1.000000
X_16_32                       1.000000
X_17_37                       1.000000
X_18_22                       1.000000
X_19_40                       1.000000
X_20_15                       1.000000
X_21_13                       1.000000
X_22_24                       1.000000
X_23_12                       1.000000
X_24_19                       1.000000
X_25_37                       1.000000
X_26_8                        1.000000
X_27_37                       1.000000
X_28_38                       1.000000
X_29_36                       1.000000
X_30_10                       1.000000
X_31_34                       1.000000
X_32_21                       1.000000
X_33_12                       1.000000
X_34_31                       1.000000
X_35_22                       1.000000
X_36_9                        1.000000
X_37_38                       1.000000
X_38_22                       1.000000
X_39_1                        1.000000
X_40_13                       1.000000
X_41_24                       1.000000
X_42_31                       1.000000
X_43_4                        1.000000
X_44_28                       1.000000
X_45_16                       1.000000
X_46_4                        1.000000
X_47_11                       1.000000
X_48_25                       1.000000
X_49_6                        1.000000
X_50_7                        1.000000
X_51_30                       1.000000
X_52_7                        1.000000
X_53_15                       1.000000
X_54_31                       1.000000
X_55_35                       1.000000
X_56_28                       1.000000
X_57_2                        1.000000
X_58_18                       1.000000
X_59_5                        1.000000
X_60_19                       1.000000
X_61_35                       1.000000
X_62_40                       1.000000
X_63_8                        1.000000
X_64_9                        1.000000
X_65_29                       1.000000
X_66_39                       1.000000
X_67_36                       1.000000
X_68_31                       1.000000
X_69_2                        1.000000
X_70_29                       1.000000
X_71_11                       1.000000
X_72_3                        1.000000
X_73_13                       1.000000
X_74_36                       1.000000
X_75_4                        1.000000
X_76_9                        1.000000
X_77_22                       1.000000
X_78_3                        1.000000
X_79_18                       1.000000
X_80_30                       1.000000
X_81_5                        1.000000
X_82_4                        1.000000
X_83_7                        1.000000
X_84_32                       1.000000
X_85_26                       1.000000
X_86_21                       1.000000
X_87_29                       1.000000
X_88_20                       1.000000
X_89_3                        1.000000
X_90_28                       1.000000
X_91_16                       1.000000
X_92_12                       1.000000
X_93_40                       1.000000
X_94_21                       1.000000
X_95_1                        1.000000
X_96_1                        1.000000
X_97_26                       1.000000
X_98_27                       1.000000
X_99_24                       1.000000
X_100_13                      1.000000
All other variables in the range 1-4001 are 0.
